<?xml version = "1.0" standalone="yes"?>
<!-- This file has been generated by DOcplex version 2.23.222  -->
<CPLEXSolution version="1.0">
 <header
   problemName="CVRP"
   objectiveValue="14543.8"
  />
 <variables>
  <variable name="x_0_1" index="0" value="1.00000"/>
  <variable name="x_0_2" index="1" value="1.00000"/>
  <variable name="x_0_3" index="2" value="1.00000"/>
  <variable name="x_0_4" index="3" value="1.00000"/>
  <variable name="x_0_5" index="4" value="1.00000"/>
  <variable name="x_0_6" index="5" value="1.00000"/>
  <variable name="x_0_7" index="6" value="1.00000"/>
  <variable name="x_0_9" index="8" value="1.00000"/>
  <variable name="x_0_12" index="11" value="1.00000"/>
  <variable name="x_0_16" index="15" value="1.00000"/>
  <variable name="x_0_17" index="16" value="1.00000"/>
  <variable name="x_0_19" index="18" value="1.00000"/>
  <variable name="x_0_23" index="22" value="1.00000"/>
  <variable name="x_0_26" index="25" value="1.00000"/>
  <variable name="x_0_29" index="28" value="1.00000"/>
  <variable name="x_1_24" index="52" value="1.00000"/>
  <variable name="x_2_0" index="58" value="1.00000"/>
  <variable name="x_3_8" index="94" value="1.00000"/>
  <variable name="x_4_15" index="130" value="1.00000"/>
  <variable name="x_5_14" index="158" value="1.00000"/>
  <variable name="x_6_21" index="194" value="1.00000"/>
  <variable name="x_7_10" index="212" value="1.00000"/>
  <variable name="x_8_0" index="232" value="1.00000"/>
  <variable name="x_9_25" index="285" value="1.00000"/>
  <variable name="x_10_0" index="290" value="1.00000"/>
  <variable name="x_11_0" index="319" value="1.00000"/>
  <variable name="x_12_0" index="348" value="1.00000"/>
  <variable name="x_13_20" index="396" value="1.00000"/>
  <variable name="x_14_0" index="406" value="1.00000"/>
  <variable name="x_15_28" index="462" value="1.00000"/>
  <variable name="x_16_11" index="475" value="1.00000"/>
  <variable name="x_17_0" index="493" value="1.00000"/>
  <variable name="x_18_0" index="522" value="1.00000"/>
  <variable name="x_19_0" index="551" value="1.00000"/>
  <variable name="x_20_0" index="580" value="1.00000"/>
  <variable name="x_21_0" index="609" value="1.00000"/>
  <variable name="x_22_0" index="638" value="1.00000"/>
  <variable name="x_23_0" index="667" value="1.00000"/>
  <variable name="x_24_0" index="696" value="1.00000"/>
  <variable name="x_25_22" index="747" value="1.00000"/>
  <variable name="x_26_27" index="780" value="1.00000"/>
  <variable name="x_27_18" index="801" value="1.00000"/>
  <variable name="x_28_0" index="812" value="1.00000"/>
  <variable name="x_29_13" index="854" value="1.00000"/>
  <variable name="u_1" index="870" value="5.00000"/>
  <variable name="u_2" index="871" value="33.00000"/>
  <variable name="u_3" index="872" value="13.00000"/>
  <variable name="u_4" index="873" value="1.00000"/>
  <variable name="u_5" index="874" value="8.00000"/>
  <variable name="u_6" index="875" value="28.00000"/>
  <variable name="u_7" index="876" value="15.00000"/>
  <variable name="u_8" index="877" value="36.00000"/>
  <variable name="u_9" index="878" value="16.00000"/>
  <variable name="u_10" index="879" value="36.00000"/>
  <variable name="u_11" index="880" value="36.00000"/>
  <variable name="u_12" index="881" value="33.00000"/>
  <variable name="u_13" index="882" value="30.00000"/>
  <variable name="u_14" index="883" value="36.00000"/>
  <variable name="u_15" index="884" value="25.00000"/>
  <variable name="u_16" index="885" value="11.00000"/>
  <variable name="u_17" index="886" value="35.00000"/>
  <variable name="u_18" index="887" value="36.00000"/>
  <variable name="u_19" index="888" value="34.00000"/>
  <variable name="u_20" index="889" value="36.00000"/>
  <variable name="u_21" index="890" value="33.00000"/>
  <variable name="u_22" index="891" value="32.00000"/>
  <variable name="u_23" index="892" value="36.00000"/>
  <variable name="u_24" index="893" value="25.00000"/>
  <variable name="u_25" index="894" value="23.00000"/>
  <variable name="u_26" index="895" value="14.00000"/>
  <variable name="u_27" index="896" value="21.00000"/>
  <variable name="u_28" index="897" value="36.00000"/>
  <variable name="u_29" index="898" value="26.00000"/>
 </variables>
</CPLEXSolution>
